NAME : att48.tsp
TYPE : TOUR
DIMENSION : 48
TOUR_LENGTH : 33921.94697439317
TOUR_SECTION
1
9
40
15
12
11
23
3
22
16
41
34
29
5
48
42
2
26
4
35
45
10
24
32
39
25
14
13
21
47
20
33
46
36
30
43
17
27
19
37
6
28
7
18
44
31
38
8
-1
